p cnf 266 1832
87 91 109 0
36 99 107 117 0
82 124 132 0
73 114 208 0
30 66 68 75 212 0
63 64 81 89 122 170 0
28 62 131 259 0
84 94 0
141 143 234 253 0
104 144 148 158 0
153 156 157 161 0
95 100 120 163 166 0
128 136 138 0
85 151 0
70 152 0
78 79 155 0
61 173 176 0
56 57 58 92 0
49 51 54 134 137 140 0
45 47 0
40 44 118 160 162 0
38 108 0
35 96 123 0
31 32 33 125 0
29 67 71 74 112 0
25 27 175 0
23 24 60 0
22 50 52 55 133 0
19 20 21 103 0
16 17 90 154 0
13 15 164 0
12 115 127 0
11 150 0
10 69 101 111 167 0
8 77 168 0
80 121 178 0
180 181 182 183 185 0
135 186 187 188 0
189 190 0
192 193 195 197 0
48 198 200 0
46 202 203 0
34 83 126 204 205 0
41 113 206 207 0
72 209 211 0
26 213 0
106 146 149 214 0
93 215 216 218 0
159 220 0
116 130 221 232 0
102 222 0
169 224 225 226 0
227 228 229 0
184 230 231 0
-42 -109 0
-107 -109 0
-109 -208 0
-42 -107 0
-42 -208 0
-107 -208 0
-145 -234 0
-144 -145 0
-145 -233 0
-144 -234 0
-233 -234 0
-144 -233 0
-196 -237 0
-160 -196 0
-96 -196 0
-160 -237 0
-96 -237 0
-96 -160 0
-60 -238 0
-55 -238 0
-103 -238 0
-55 -60 0
-60 -103 0
-55 -103 0
-109 -145 0
-109 -196 0
-109 -238 0
-145 -196 0
-145 -238 0
-196 -238 0
-42 -234 0
-42 -237 0
-42 -60 0
-234 -237 0
-60 -234 0
-60 -237 0
-107 -144 0
-107 -160 0
-55 -107 0
-144 -160 0
-55 -144 0
-55 -160 0
-208 -233 0
-96 -208 0
-103 -208 0
-96 -233 0
-103 -233 0
-96 -103 0
-239 -240 0
-30 -239 0
-64 -239 0
-131 -239 0
-30 -240 0
-64 -240 0
-131 -240 0
-30 -64 0
-30 -131 0
-64 -131 0
-152 -223 0
-58 -152 0
-134 -152 0
-152 -242 0
-58 -223 0
-134 -223 0
-223 -242 0
-58 -134 0
-58 -242 0
-134 -242 0
-35 -44 0
-44 -125 0
-44 -112 0
-44 -76 0
-35 -125 0
-35 -112 0
-35 -76 0
-112 -125 0
-76 -125 0
-76 -112 0
-121 -167 0
-167 -180 0
-167 -243 0
-167 -186 0
-121 -180 0
-121 -243 0
-121 -186 0
-180 -243 0
-180 -186 0
-186 -243 0
-192 -198 0
-46 -192 0
-43 -192 0
-110 -192 0
-192 -204 0
-41 -192 0
-46 -198 0
-43 -198 0
-110 -198 0
-198 -204 0
-41 -198 0
-43 -46 0
-46 -110 0
-46 -204 0
-41 -46 0
-43 -110 0
-43 -204 0
-41 -43 0
-110 -204 0
-41 -110 0
-41 -204 0
-209 -244 0
-26 -244 0
-53 -244 0
-146 -244 0
-215 -244 0
-235 -244 0
-26 -209 0
-53 -209 0
-146 -209 0
-209 -215 0
-209 -235 0
-26 -53 0
-26 -146 0
-26 -215 0
-26 -235 0
-53 -146 0
-53 -215 0
-53 -235 0
-146 -215 0
-146 -235 0
-215 -235 0
-14 -232 0
-14 -246 0
-14 -102 0
-14 -169 0
-14 -227 0
-14 -184 0
-232 -246 0
-102 -232 0
-169 -232 0
-227 -232 0
-184 -232 0
-102 -246 0
-169 -246 0
-227 -246 0
-184 -246 0
-102 -169 0
-102 -227 0
-102 -184 0
-169 -227 0
-169 -184 0
-184 -227 0
-152 -239 0
-192 -239 0
-239 -244 0
-14 -239 0
-152 -192 0
-152 -244 0
-14 -152 0
-192 -244 0
-14 -192 0
-14 -244 0
-223 -240 0
-198 -240 0
-209 -240 0
-232 -240 0
-198 -223 0
-209 -223 0
-223 -232 0
-198 -209 0
-198 -232 0
-209 -232 0
-44 -167 0
-44 -46 0
-26 -44 0
-44 -246 0
-46 -167 0
-26 -167 0
-167 -246 0
-26 -46 0
-46 -246 0
-26 -246 0
-35 -121 0
-35 -43 0
-35 -53 0
-35 -102 0
-43 -121 0
-53 -121 0
-102 -121 0
-43 -53 0
-43 -102 0
-53 -102 0
-30 -58 0
-30 -125 0
-30 -180 0
-30 -110 0
-30 -146 0
-30 -169 0
-58 -125 0
-58 -180 0
-58 -110 0
-58 -146 0
-58 -169 0
-125 -180 0
-110 -125 0
-125 -146 0
-125 -169 0
-110 -180 0
-146 -180 0
-169 -180 0
-110 -146 0
-110 -169 0
-146 -169 0
-64 -134 0
-64 -112 0
-64 -243 0
-64 -204 0
-64 -215 0
-64 -227 0
-112 -134 0
-134 -243 0
-134 -204 0
-134 -215 0
-134 -227 0
-112 -243 0
-112 -204 0
-112 -215 0
-112 -227 0
-204 -243 0
-215 -243 0
-227 -243 0
-204 -215 0
-204 -227 0
-215 -227 0
-131 -242 0
-76 -131 0
-131 -186 0
-41 -131 0
-131 -235 0
-131 -184 0
-76 -242 0
-186 -242 0
-41 -242 0
-235 -242 0
-184 -242 0
-76 -186 0
-41 -76 0
-76 -235 0
-76 -184 0
-41 -186 0
-186 -235 0
-184 -186 0
-41 -235 0
-41 -184 0
-184 -235 0
-119 -248 0
-75 -248 0
-170 -248 0
-75 -119 0
-119 -170 0
-75 -170 0
-94 -253 0
-94 -153 0
-94 -163 0
-153 -253 0
-163 -253 0
-153 -163 0
-21 -133 0
-133 -249 0
-90 -133 0
-21 -249 0
-21 -90 0
-90 -249 0
-80 -111 0
-111 -181 0
-111 -174 0
-80 -181 0
-80 -174 0
-174 -181 0
-193 -200 0
-193 -202 0
-193 -241 0
-200 -202 0
-200 -241 0
-202 -241 0
-116 -250 0
-250 -251 0
-222 -250 0
-116 -251 0
-116 -222 0
-222 -251 0
-94 -248 0
-193 -248 0
-248 -250 0
-94 -193 0
-94 -250 0
-193 -250 0
-119 -253 0
-119 -200 0
-116 -119 0
-200 -253 0
-116 -253 0
-116 -200 0
-111 -133 0
-133 -202 0
-133 -251 0
-111 -202 0
-111 -251 0
-202 -251 0
-21 -80 0
-21 -241 0
-21 -222 0
-80 -241 0
-80 -222 0
-222 -241 0
-75 -153 0
-75 -249 0
-75 -181 0
-153 -249 0
-153 -181 0
-181 -249 0
-163 -170 0
-90 -170 0
-170 -174 0
-90 -163 0
-163 -174 0
-90 -174 0
-82 -117 0
-68 -117 0
-89 -117 0
-62 -117 0
-68 -82 0
-82 -89 0
-62 -82 0
-68 -89 0
-62 -68 0
-62 -89 0
-78 -179 0
-78 -92 0
-78 -137 0
-78 -191 0
-92 -179 0
-137 -179 0
-179 -191 0
-92 -137 0
-92 -191 0
-137 -191 0
-47 -88 0
-47 -162 0
-38 -47 0
-33 -47 0
-47 -71 0
-47 -252 0
-88 -162 0
-38 -88 0
-33 -88 0
-71 -88 0
-88 -252 0
-38 -162 0
-33 -162 0
-71 -162 0
-162 -252 0
-33 -38 0
-38 -71 0
-38 -252 0
-33 -71 0
-33 -252 0
-71 -252 0
-24 -27 0
-22 -27 0
-27 -142 0
-27 -219 0
-17 -27 0
-15 -27 0
-22 -24 0
-24 -142 0
-24 -219 0
-17 -24 0
-15 -24 0
-22 -142 0
-22 -219 0
-17 -22 0
-15 -22 0
-142 -219 0
-17 -142 0
-15 -142 0
-17 -219 0
-15 -219 0
-15 -17 0
-139 -150 0
-10 -139 0
-8 -139 0
-139 -182 0
-139 -177 0
-139 -187 0
-10 -150 0
-8 -150 0
-150 -182 0
-150 -177 0
-150 -187 0
-8 -10 0
-10 -182 0
-10 -177 0
-10 -187 0
-8 -182 0
-8 -177 0
-8 -187 0
-177 -182 0
-182 -187 0
-177 -187 0
-171 -211 0
-171 -214 0
-93 -171 0
-171 -254 0
-211 -214 0
-93 -211 0
-211 -254 0
-93 -214 0
-214 -254 0
-93 -254 0
-165 -221 0
-165 -225 0
-165 -228 0
-165 -230 0
-221 -225 0
-221 -228 0
-221 -230 0
-225 -228 0
-225 -230 0
-228 -230 0
-27 -47 0
-47 -139 0
-47 -171 0
-47 -165 0
-27 -139 0
-27 -171 0
-27 -165 0
-139 -171 0
-139 -165 0
-165 -171 0
-24 -88 0
-88 -150 0
-88 -211 0
-88 -221 0
-24 -150 0
-24 -211 0
-24 -221 0
-150 -211 0
-150 -221 0
-211 -221 0
-78 -117 0
-117 -162 0
-22 -117 0
-10 -117 0
-78 -162 0
-22 -78 0
-10 -78 0
-22 -162 0
-10 -162 0
-10 -22 0
-82 -179 0
-38 -82 0
-82 -142 0
-8 -82 0
-38 -179 0
-142 -179 0
-8 -179 0
-38 -142 0
-8 -38 0
-8 -142 0
-68 -92 0
-33 -68 0
-68 -219 0
-68 -182 0
-68 -214 0
-68 -225 0
-33 -92 0
-92 -219 0
-92 -182 0
-92 -214 0
-92 -225 0
-33 -219 0
-33 -182 0
-33 -214 0
-33 -225 0
-182 -219 0
-214 -219 0
-219 -225 0
-182 -214 0
-182 -225 0
-214 -225 0
-89 -137 0
-71 -89 0
-17 -89 0
-89 -177 0
-89 -93 0
-89 -228 0
-71 -137 0
-17 -137 0
-137 -177 0
-93 -137 0
-137 -228 0
-17 -71 0
-71 -177 0
-71 -93 0
-71 -228 0
-17 -177 0
-17 -93 0
-17 -228 0
-93 -177 0
-177 -228 0
-93 -228 0
-62 -191 0
-62 -252 0
-15 -62 0
-62 -187 0
-62 -254 0
-62 -230 0
-191 -252 0
-15 -191 0
-187 -191 0
-191 -254 0
-191 -230 0
-15 -252 0
-187 -252 0
-252 -254 0
-230 -252 0
-15 -187 0
-15 -254 0
-15 -230 0
-187 -254 0
-187 -230 0
-230 -254 0
-54 -255 0
-83 -206 0
-54 -83 0
-206 -255 0
-36 -124 0
-36 -212 0
-36 -81 0
-36 -259 0
-124 -212 0
-81 -124 0
-124 -259 0
-81 -212 0
-212 -259 0
-81 -259 0
-148 -217 0
-148 -156 0
-148 -166 0
-136 -148 0
-156 -217 0
-166 -217 0
-136 -217 0
-156 -166 0
-136 -156 0
-136 -166 0
-45 -199 0
-40 -199 0
-108 -199 0
-32 -199 0
-67 -199 0
-199 -245 0
-40 -45 0
-45 -108 0
-32 -45 0
-45 -67 0
-45 -245 0
-40 -108 0
-32 -40 0
-40 -67 0
-40 -245 0
-32 -108 0
-67 -108 0
-108 -245 0
-32 -67 0
-32 -245 0
-67 -245 0
-25 -210 0
-52 -210 0
-147 -210 0
-210 -236 0
-16 -210 0
-13 -210 0
-25 -52 0
-25 -147 0
-25 -236 0
-16 -25 0
-13 -25 0
-52 -147 0
-52 -236 0
-16 -52 0
-13 -52 0
-147 -236 0
-16 -147 0
-13 -147 0
-16 -236 0
-13 -236 0
-13 -16 0
-12 -247 0
-12 -101 0
-12 -168 0
-12 -183 0
-12 -256 0
-12 -188 0
-101 -247 0
-168 -247 0
-183 -247 0
-247 -256 0
-188 -247 0
-101 -168 0
-101 -183 0
-101 -256 0
-101 -188 0
-168 -183 0
-168 -256 0
-168 -188 0
-183 -256 0
-183 -188 0
-188 -256 0
-189 -195 0
-97 -189 0
-189 -205 0
-189 -207 0
-97 -195 0
-195 -205 0
-195 -207 0
-97 -205 0
-97 -207 0
-205 -207 0
-220 -257 0
-220 -226 0
-220 -229 0
-220 -231 0
-226 -257 0
-229 -257 0
-231 -257 0
-226 -229 0
-226 -231 0
-229 -231 0
-199 -210 0
-12 -199 0
-189 -199 0
-199 -220 0
-12 -210 0
-189 -210 0
-210 -220 0
-12 -189 0
-12 -220 0
-189 -220 0
-25 -45 0
-45 -247 0
-45 -195 0
-45 -257 0
-25 -247 0
-25 -195 0
-25 -257 0
-195 -247 0
-247 -257 0
-195 -257 0
-36 -148 0
-36 -40 0
-36 -52 0
-36 -101 0
-40 -148 0
-52 -148 0
-101 -148 0
-40 -52 0
-40 -101 0
-52 -101 0
-124 -217 0
-108 -124 0
-124 -147 0
-124 -168 0
-108 -217 0
-147 -217 0
-168 -217 0
-108 -147 0
-108 -168 0
-147 -168 0
-156 -212 0
-32 -212 0
-212 -236 0
-183 -212 0
-97 -212 0
-212 -226 0
-32 -156 0
-156 -236 0
-156 -183 0
-97 -156 0
-156 -226 0
-32 -236 0
-32 -183 0
-32 -97 0
-32 -226 0
-183 -236 0
-97 -236 0
-226 -236 0
-97 -183 0
-183 -226 0
-97 -226 0
-81 -166 0
-67 -81 0
-16 -81 0
-81 -256 0
-81 -205 0
-81 -229 0
-67 -166 0
-16 -166 0
-166 -256 0
-166 -205 0
-166 -229 0
-16 -67 0
-67 -256 0
-67 -205 0
-67 -229 0
-16 -256 0
-16 -205 0
-16 -229 0
-205 -256 0
-229 -256 0
-205 -229 0
-136 -259 0
-245 -259 0
-13 -259 0
-188 -259 0
-207 -259 0
-231 -259 0
-136 -245 0
-13 -136 0
-136 -188 0
-136 -207 0
-136 -231 0
-13 -245 0
-188 -245 0
-207 -245 0
-231 -245 0
-13 -188 0
-13 -207 0
-13 -231 0
-188 -207 0
-188 -231 0
-207 -231 0
-129 -158 0
-157 -158 0
-120 -158 0
-128 -158 0
-129 -157 0
-120 -129 0
-128 -129 0
-120 -157 0
-128 -157 0
-120 -128 0
-79 -173 0
-57 -79 0
-51 -79 0
-79 -194 0
-57 -173 0
-51 -173 0
-173 -194 0
-51 -57 0
-57 -194 0
-51 -194 0
-31 -201 0
-29 -201 0
-65 -201 0
-29 -31 0
-31 -65 0
-29 -65 0
-115 -185 0
-59 -115 0
-115 -135 0
-59 -185 0
-135 -185 0
-59 -135 0
-203 -258 0
-37 -203 0
-126 -203 0
-113 -203 0
-37 -258 0
-126 -258 0
-113 -258 0
-37 -126 0
-37 -113 0
-113 -126 0
-213 -260 0
-149 -213 0
-213 -216 0
-213 -261 0
-149 -260 0
-216 -260 0
-260 -261 0
-149 -216 0
-149 -261 0
-216 -261 0
-115 -201 0
-79 -158 0
-158 -203 0
-158 -213 0
-79 -203 0
-79 -213 0
-203 -213 0
-129 -173 0
-129 -258 0
-129 -260 0
-173 -258 0
-173 -260 0
-258 -260 0
-57 -157 0
-31 -157 0
-157 -185 0
-37 -157 0
-149 -157 0
-31 -57 0
-57 -185 0
-37 -57 0
-57 -149 0
-31 -185 0
-31 -37 0
-31 -149 0
-37 -185 0
-149 -185 0
-37 -149 0
-51 -120 0
-29 -120 0
-59 -120 0
-120 -126 0
-120 -216 0
-29 -51 0
-51 -59 0
-51 -126 0
-51 -216 0
-29 -59 0
-29 -126 0
-29 -216 0
-59 -126 0
-59 -216 0
-126 -216 0
-128 -194 0
-65 -128 0
-128 -135 0
-113 -128 0
-128 -261 0
-65 -194 0
-135 -194 0
-113 -194 0
-194 -261 0
-65 -135 0
-65 -113 0
-65 -261 0
-113 -135 0
-135 -261 0
-113 -261 0
-39 -87 0
-87 -99 0
-73 -87 0
-87 -122 0
-28 -87 0
-39 -99 0
-39 -73 0
-39 -122 0
-28 -39 0
-73 -99 0
-99 -122 0
-28 -99 0
-73 -122 0
-28 -73 0
-28 -122 0
-105 -141 0
-104 -105 0
-18 -105 0
-95 -105 0
-105 -138 0
-104 -141 0
-18 -141 0
-95 -141 0
-138 -141 0
-18 -104 0
-95 -104 0
-104 -138 0
-18 -95 0
-18 -138 0
-95 -138 0
-9 -151 0
-151 -155 0
-151 -176 0
-49 -151 0
-151 -262 0
-9 -155 0
-9 -176 0
-9 -49 0
-9 -262 0
-155 -176 0
-49 -155 0
-155 -262 0
-49 -176 0
-176 -262 0
-49 -262 0
-118 -123 0
-74 -118 0
-118 -172 0
-74 -123 0
-123 -172 0
-74 -172 0
-20 -50 0
-50 -154 0
-50 -164 0
-20 -154 0
-20 -164 0
-154 -164 0
-130 -159 0
-87 -105 0
-87 -151 0
-87 -159 0
-105 -151 0
-105 -159 0
-151 -159 0
-39 -141 0
-9 -39 0
-39 -130 0
-9 -141 0
-130 -141 0
-9 -130 0
-99 -104 0
-99 -155 0
-99 -118 0
-50 -99 0
-104 -155 0
-104 -118 0
-50 -104 0
-118 -155 0
-50 -155 0
-50 -118 0
-18 -73 0
-73 -176 0
-73 -123 0
-20 -73 0
-18 -176 0
-18 -123 0
-18 -20 0
-123 -176 0
-20 -176 0
-20 -123 0
-95 -122 0
-49 -122 0
-74 -122 0
-122 -154 0
-49 -95 0
-74 -95 0
-95 -154 0
-49 -74 0
-49 -154 0
-74 -154 0
-28 -138 0
-28 -262 0
-28 -172 0
-28 -164 0
-138 -262 0
-138 -172 0
-138 -164 0
-172 -262 0
-164 -262 0
-164 -172 0
-91 -263 0
-91 -264 0
-91 -132 0
-91 -114 0
-66 -91 0
-63 -91 0
-263 -264 0
-132 -263 0
-114 -263 0
-66 -263 0
-63 -263 0
-132 -264 0
-114 -264 0
-66 -264 0
-63 -264 0
-114 -132 0
-66 -132 0
-63 -132 0
-66 -114 0
-63 -114 0
-63 -66 0
-84 -265 0
-143 -265 0
-265 -266 0
-7 -265 0
-161 -265 0
-100 -265 0
-84 -143 0
-84 -266 0
-7 -84 0
-84 -161 0
-84 -100 0
-143 -266 0
-7 -143 0
-143 -161 0
-100 -143 0
-7 -266 0
-161 -266 0
-100 -266 0
-7 -161 0
-7 -100 0
-100 -161 0
-70 -85 0
-6 -85 0
-5 -85 0
-61 -85 0
-56 -85 0
-85 -140 0
-6 -70 0
-5 -70 0
-61 -70 0
-56 -70 0
-70 -140 0
-5 -6 0
-6 -61 0
-6 -56 0
-6 -140 0
-5 -61 0
-5 -56 0
-5 -140 0
-56 -61 0
-61 -140 0
-56 -140 0
-4 -175 0
-4 -23 0
-3 -4 0
-4 -19 0
-23 -175 0
-3 -175 0
-19 -175 0
-3 -23 0
-19 -23 0
-3 -19 0
-2 -127 0
-11 -127 0
-77 -127 0
-127 -178 0
-2 -11 0
-2 -77 0
-2 -178 0
-11 -77 0
-11 -178 0
-77 -178 0
-190 -197 0
-48 -190 0
-86 -190 0
-34 -190 0
-48 -197 0
-86 -197 0
-34 -197 0
-48 -86 0
-34 -48 0
-34 -86 0
-1 -98 0
-72 -98 0
-98 -106 0
-98 -218 0
-1 -72 0
-1 -106 0
-1 -218 0
-72 -106 0
-72 -218 0
-106 -218 0
-91 -265 0
-85 -91 0
-4 -91 0
-91 -127 0
-91 -190 0
-91 -98 0
-85 -265 0
-4 -265 0
-127 -265 0
-190 -265 0
-98 -265 0
-4 -85 0
-85 -127 0
-85 -190 0
-85 -98 0
-4 -127 0
-4 -190 0
-4 -98 0
-127 -190 0
-98 -127 0
-98 -190 0
-84 -263 0
-70 -263 0
-175 -263 0
-2 -263 0
-197 -263 0
-1 -263 0
-70 -84 0
-84 -175 0
-2 -84 0
-84 -197 0
-1 -84 0
-70 -175 0
-2 -70 0
-70 -197 0
-1 -70 0
-2 -175 0
-175 -197 0
-1 -175 0
-2 -197 0
-1 -2 0
-1 -197 0
-143 -264 0
-6 -264 0
-23 -264 0
-11 -264 0
-48 -264 0
-72 -264 0
-6 -143 0
-23 -143 0
-11 -143 0
-48 -143 0
-72 -143 0
-6 -23 0
-6 -11 0
-6 -48 0
-6 -72 0
-11 -23 0
-23 -48 0
-23 -72 0
-11 -48 0
-11 -72 0
-48 -72 0
-132 -266 0
-5 -132 0
-3 -132 0
-77 -132 0
-5 -266 0
-3 -266 0
-77 -266 0
-3 -5 0
-5 -77 0
-3 -77 0
-7 -114 0
-61 -114 0
-19 -114 0
-114 -178 0
-7 -61 0
-7 -19 0
-7 -178 0
-19 -61 0
-61 -178 0
-19 -178 0
-66 -161 0
-56 -66 0
-66 -86 0
-66 -106 0
-56 -161 0
-86 -161 0
-106 -161 0
-56 -86 0
-56 -106 0
-86 -106 0
-63 -100 0
-63 -140 0
-34 -63 0
-63 -218 0
-100 -140 0
-34 -100 0
-100 -218 0
-34 -140 0
-140 -218 0
-34 -218 0
-42 -109 0
-109 -145 0
-109 -234 0
-42 -145 0
-42 -234 0
-145 -234 0
-239 -240 0
-152 -239 0
-223 -239 0
-152 -240 0
-223 -240 0
-152 -223 0
-119 -248 0
-94 -248 0
-248 -253 0
-94 -119 0
-119 -253 0
-94 -253 0
-39 -87 0
-87 -105 0
-87 -141 0
-87 -151 0
-9 -87 0
-39 -105 0
-39 -141 0
-39 -151 0
-9 -39 0
-105 -141 0
-105 -151 0
-9 -105 0
-141 -151 0
-9 -141 0
-9 -151 0
-91 -263 0
-91 -264 0
-91 -265 0
-84 -91 0
-91 -143 0
-85 -91 0
-70 -91 0
-6 -91 0
-263 -264 0
-263 -265 0
-84 -263 0
-143 -263 0
-85 -263 0
-70 -263 0
-6 -263 0
-264 -265 0
-84 -264 0
-143 -264 0
-85 -264 0
-70 -264 0
-6 -264 0
-84 -265 0
-143 -265 0
-85 -265 0
-70 -265 0
-6 -265 0
-84 -143 0
-84 -85 0
-70 -84 0
-6 -84 0
-85 -143 0
-70 -143 0
-6 -143 0
-70 -85 0
-6 -85 0
-6 -70 0
-107 -208 0
-107 -144 0
-107 -233 0
-144 -208 0
-208 -233 0
-144 -233 0
-82 -117 0
-78 -117 0
-117 -179 0
-78 -82 0
-82 -179 0
-78 -179 0
-36 -124 0
-36 -148 0
-36 -217 0
-124 -148 0
-124 -217 0
-148 -217 0
-129 -158 0
-79 -158 0
-158 -173 0
-79 -129 0
-129 -173 0
-79 -173 0
-73 -99 0
-99 -104 0
-18 -99 0
-99 -155 0
-99 -176 0
-73 -104 0
-18 -73 0
-73 -155 0
-73 -176 0
-18 -104 0
-104 -155 0
-104 -176 0
-18 -155 0
-18 -176 0
-155 -176 0
-114 -132 0
-132 -266 0
-7 -132 0
-5 -132 0
-61 -132 0
-114 -266 0
-7 -114 0
-5 -114 0
-61 -114 0
-7 -266 0
-5 -266 0
-61 -266 0
-5 -7 0
-7 -61 0
-5 -61 0
-30 -64 0
-30 -131 0
-30 -58 0
-30 -134 0
-30 -242 0
-64 -131 0
-58 -64 0
-64 -134 0
-64 -242 0
-58 -131 0
-131 -134 0
-131 -242 0
-58 -134 0
-58 -242 0
-134 -242 0
-75 -170 0
-75 -153 0
-75 -163 0
-153 -170 0
-163 -170 0
-153 -163 0
-68 -89 0
-62 -68 0
-68 -92 0
-68 -137 0
-68 -191 0
-62 -89 0
-89 -92 0
-89 -137 0
-89 -191 0
-62 -92 0
-62 -137 0
-62 -191 0
-92 -137 0
-92 -191 0
-137 -191 0
-54 -255 0
-81 -212 0
-212 -259 0
-156 -212 0
-166 -212 0
-136 -212 0
-81 -259 0
-81 -156 0
-81 -166 0
-81 -136 0
-156 -259 0
-166 -259 0
-136 -259 0
-156 -166 0
-136 -156 0
-136 -166 0
-120 -157 0
-128 -157 0
-57 -157 0
-51 -157 0
-157 -194 0
-120 -128 0
-57 -120 0
-51 -120 0
-120 -194 0
-57 -128 0
-51 -128 0
-128 -194 0
-51 -57 0
-57 -194 0
-51 -194 0
-28 -122 0
-95 -122 0
-122 -138 0
-49 -122 0
-122 -262 0
-28 -95 0
-28 -138 0
-28 -49 0
-28 -262 0
-95 -138 0
-49 -95 0
-95 -262 0
-49 -138 0
-138 -262 0
-49 -262 0
-63 -66 0
-66 -161 0
-66 -100 0
-56 -66 0
-66 -140 0
-63 -161 0
-63 -100 0
-56 -63 0
-63 -140 0
-100 -161 0
-56 -161 0
-140 -161 0
-56 -100 0
-100 -140 0
-56 -140 0
-196 -237 0
-196 -238 0
-60 -196 0
-237 -238 0
-60 -237 0
-60 -238 0
-47 -88 0
-27 -47 0
-24 -47 0
-47 -139 0
-47 -150 0
-27 -88 0
-24 -88 0
-88 -139 0
-88 -150 0
-24 -27 0
-27 -139 0
-27 -150 0
-24 -139 0
-24 -150 0
-139 -150 0
-45 -199 0
-199 -210 0
-25 -199 0
-12 -199 0
-199 -247 0
-45 -210 0
-25 -45 0
-12 -45 0
-45 -247 0
-25 -210 0
-12 -210 0
-210 -247 0
-12 -25 0
-25 -247 0
-12 -247 0
-115 -201 0
-4 -175 0
-4 -23 0
-4 -127 0
-2 -4 0
-4 -11 0
-23 -175 0
-127 -175 0
-2 -175 0
-11 -175 0
-23 -127 0
-2 -23 0
-11 -23 0
-2 -127 0
-11 -127 0
-2 -11 0
-96 -160 0
-55 -160 0
-103 -160 0
-55 -96 0
-96 -103 0
-55 -103 0
-35 -44 0
-44 -167 0
-44 -121 0
-35 -167 0
-35 -121 0
-121 -167 0
-21 -133 0
-111 -133 0
-80 -133 0
-21 -111 0
-21 -80 0
-80 -111 0
-38 -162 0
-22 -162 0
-142 -162 0
-10 -162 0
-8 -162 0
-22 -38 0
-38 -142 0
-10 -38 0
-8 -38 0
-22 -142 0
-10 -22 0
-8 -22 0
-10 -142 0
-8 -142 0
-8 -10 0
-40 -108 0
-40 -52 0
-40 -147 0
-40 -101 0
-40 -168 0
-52 -108 0
-108 -147 0
-101 -108 0
-108 -168 0
-52 -147 0
-52 -101 0
-52 -168 0
-101 -147 0
-147 -168 0
-101 -168 0
-118 -123 0
-50 -118 0
-20 -118 0
-50 -123 0
-20 -123 0
-20 -50 0
-3 -19 0
-3 -77 0
-3 -178 0
-19 -77 0
-19 -178 0
-77 -178 0
-112 -125 0
-76 -125 0
-125 -180 0
-125 -243 0
-125 -186 0
-76 -112 0
-112 -180 0
-112 -243 0
-112 -186 0
-76 -180 0
-76 -243 0
-76 -186 0
-180 -243 0
-180 -186 0
-186 -243 0
-90 -249 0
-181 -249 0
-174 -249 0
-90 -181 0
-90 -174 0
-174 -181 0
-33 -71 0
-33 -252 0
-33 -219 0
-17 -33 0
-15 -33 0
-33 -182 0
-33 -177 0
-33 -187 0
-71 -252 0
-71 -219 0
-17 -71 0
-15 -71 0
-71 -182 0
-71 -177 0
-71 -187 0
-219 -252 0
-17 -252 0
-15 -252 0
-182 -252 0
-177 -252 0
-187 -252 0
-17 -219 0
-15 -219 0
-182 -219 0
-177 -219 0
-187 -219 0
-15 -17 0
-17 -182 0
-17 -177 0
-17 -187 0
-15 -182 0
-15 -177 0
-15 -187 0
-177 -182 0
-182 -187 0
-177 -187 0
-32 -67 0
-32 -245 0
-32 -236 0
-16 -32 0
-13 -32 0
-32 -183 0
-32 -256 0
-32 -188 0
-67 -245 0
-67 -236 0
-16 -67 0
-13 -67 0
-67 -183 0
-67 -256 0
-67 -188 0
-236 -245 0
-16 -245 0
-13 -245 0
-183 -245 0
-245 -256 0
-188 -245 0
-16 -236 0
-13 -236 0
-183 -236 0
-236 -256 0
-188 -236 0
-13 -16 0
-16 -183 0
-16 -256 0
-16 -188 0
-13 -183 0
-13 -256 0
-13 -188 0
-183 -256 0
-183 -188 0
-188 -256 0
-29 -31 0
-31 -65 0
-31 -185 0
-31 -59 0
-31 -135 0
-29 -65 0
-29 -185 0
-29 -59 0
-29 -135 0
-65 -185 0
-59 -65 0
-65 -135 0
-59 -185 0
-135 -185 0
-59 -135 0
-74 -172 0
-74 -154 0
-74 -164 0
-154 -172 0
-164 -172 0
-154 -164 0
-192 -198 0
-192 -244 0
-192 -209 0
-14 -192 0
-192 -232 0
-198 -244 0
-198 -209 0
-14 -198 0
-198 -232 0
-209 -244 0
-14 -244 0
-232 -244 0
-14 -209 0
-209 -232 0
-14 -232 0
-193 -200 0
-193 -250 0
-116 -193 0
-200 -250 0
-116 -200 0
-116 -250 0
-171 -211 0
-165 -171 0
-171 -221 0
-165 -211 0
-211 -221 0
-165 -221 0
-189 -195 0
-189 -220 0
-189 -257 0
-195 -220 0
-195 -257 0
-220 -257 0
-130 -159 0
-190 -197 0
-48 -190 0
-98 -190 0
-1 -190 0
-72 -190 0
-48 -197 0
-98 -197 0
-1 -197 0
-72 -197 0
-48 -98 0
-1 -48 0
-48 -72 0
-1 -98 0
-72 -98 0
-1 -72 0
-43 -46 0
-26 -46 0
-46 -53 0
-46 -246 0
-46 -102 0
-26 -43 0
-43 -53 0
-43 -246 0
-43 -102 0
-26 -53 0
-26 -246 0
-26 -102 0
-53 -246 0
-53 -102 0
-102 -246 0
-202 -241 0
-202 -251 0
-202 -222 0
-241 -251 0
-222 -241 0
-222 -251 0
-203 -258 0
-203 -213 0
-203 -260 0
-213 -258 0
-258 -260 0
-213 -260 0
-110 -204 0
-41 -110 0
-110 -146 0
-110 -215 0
-110 -235 0
-110 -169 0
-110 -227 0
-110 -184 0
-41 -204 0
-146 -204 0
-204 -215 0
-204 -235 0
-169 -204 0
-204 -227 0
-184 -204 0
-41 -146 0
-41 -215 0
-41 -235 0
-41 -169 0
-41 -227 0
-41 -184 0
-146 -215 0
-146 -235 0
-146 -169 0
-146 -227 0
-146 -184 0
-215 -235 0
-169 -215 0
-215 -227 0
-184 -215 0
-169 -235 0
-227 -235 0
-184 -235 0
-169 -227 0
-169 -184 0
-184 -227 0
-93 -214 0
-214 -254 0
-214 -225 0
-214 -228 0
-214 -230 0
-93 -254 0
-93 -225 0
-93 -228 0
-93 -230 0
-225 -254 0
-228 -254 0
-230 -254 0
-225 -228 0
-225 -230 0
-228 -230 0
-83 -206 0
-97 -205 0
-97 -207 0
-97 -226 0
-97 -229 0
-97 -231 0
-205 -207 0
-205 -226 0
-205 -229 0
-205 -231 0
-207 -226 0
-207 -229 0
-207 -231 0
-226 -229 0
-226 -231 0
-229 -231 0
-37 -126 0
-37 -113 0
-37 -149 0
-37 -216 0
-37 -261 0
-113 -126 0
-126 -149 0
-126 -216 0
-126 -261 0
-113 -149 0
-113 -216 0
-113 -261 0
-149 -216 0
-149 -261 0
-216 -261 0
-34 -86 0
-86 -106 0
-86 -218 0
-34 -106 0
-34 -218 0
-106 -218 0
